sat
(
(define-fun S () String "")
(define-fun J () String "")
(define-fun H () String "aaaaaaaabaaabbb")
(define-fun K () String "")
(define-fun R () String "")
(define-fun V () String "aabaabaabaabaa")
(define-fun G () String "")
(define-fun L () String "")
(define-fun M () String "")
(define-fun P () String "")
)
